c colouring generated by benchmark framework
p edge 144 2596
v 1 3
v 2 7
v 3 12
v 4 10
v 5 14
v 6 2
v 7 11
v 8 6
v 9 9
v 10 15
v 11 1
v 12 13
v 13 13
v 14 17
v 15 8
v 16 16
v 17 6
v 18 3
v 19 7
v 20 10
v 21 2
v 22 12
v 23 11
v 24 0
v 25 10
v 26 16
v 27 6
v 28 3
v 29 0
v 30 11
v 31 4
v 32 8
v 33 13
v 34 17
v 35 2
v 36 7
v 37 12
v 38 1
v 39 11
v 40 2
v 41 17
v 42 7
v 43 3
v 44 16
v 45 0
v 46 14
v 47 15
v 48 10
v 49 0
v 50 9
v 51 7
v 52 15
v 53 8
v 54 13
v 55 2
v 56 14
v 57 10
v 58 5
v 59 16
v 60 12
v 61 7
v 62 12
v 63 14
v 64 11
v 65 5
v 66 0
v 67 15
v 68 3
v 69 8
v 70 1
v 71 13
v 72 4
v 73 5
v 74 2
v 75 17
v 76 0
v 77 3
v 78 9
v 79 16
v 80 1
v 81 4
v 82 7
v 83 12
v 84 6
v 85 1
v 86 13
v 87 10
v 88 7
v 89 16
v 90 12
v 91 17
v 92 15
v 93 6
v 94 8
v 95 9
v 96 5
v 97 14
v 98 6
v 99 4
v 100 1
v 101 13
v 102 10
v 103 0
v 104 2
v 105 5
v 106 11
v 107 17
v 108 16
v 109 16
v 110 15
v 111 3
v 112 6
v 113 4
v 114 8
v 115 1
v 116 9
v 117 12
v 118 10
v 119 5
v 120 14
v 121 17
v 122 8
v 123 1
v 124 9
v 125 11
v 126 16
v 127 6
v 128 5
v 129 15
v 130 0
v 131 4
v 132 2
v 133 2
v 134 11
v 135 0
v 136 12
v 137 15
v 138 1
v 139 14
v 140 4
v 141 7
v 142 6
v 143 10
v 144 9
